benchmarks/VRPTW/TSPTW/solution/n80w80.002.txt.solution
1 12 42 44 26 58 37 63 2 20 33 60 31 76 50 46 9 77 57 35 30 22 17 27 59 29 73 51 47 4 43 16 45 8 14 39 13 56 49 18 53 36 68 41 7 54 61 10 23 21 79 38 66 80 34 25 74 32 5 72 78 69 71 67 65 64 19 40 15 52 11 48 55 3 62 6 70 28 24 81 75 
592
